============================[ Problem Statistics ]=============================|                                                                             ||  Number of variables:          4242                                         ||  Number of clauses:            9745                                         ||  Parse time:                   0.15 s                                       ||                                                                             |============================[ Search Statistics ]==============================| Conflicts |          ORIGINAL         |          LEARNT          | Progress ||           |    Vars  Clauses Literals |    Limit  Clauses Lit/Cl |          |==============================================================================================================================================================restarts              : 1conflicts             : 90             (361 /sec)decisions             : 174            (0.00 % random) (699 /sec)propagations          : 8236           (33076 /sec)conflict literals     : 4665           (95.98 % deleted)CPU time              : 0.249 sSATISFIABLE